unsat
( c101
  c102
  c103
  c104
  c110
  c111
  c112
  c113
  c114
  c118
  c124
  c127
  c130
  c133
  c134
  c135
  c136
  c140
  c141
  c149
  c151
  c152
  c153
  c154
  c156
  c160
  c162
  c164
  c166
  c167
  c168
  c174
  c181
  c183
  c184
  c185
  c186
  c187
  c188
  c194
  c196
  c197
  c198
  c199
  c206
  c207
  c208
  c209
  c210
  c213
  c214
  c220
  c223
  c226
  c229
  c230
  c231
  c232
  c238
  c239
  c240
  c241
  c242
  c246
  c252
  c255
  c258
  c26
  c261
  c262
  c263
  c264
  c270
  c277
  c279
  c280
  c281
  c282
  c284
  c290
  c292
  c293
  c294
  c295
  c301
  c309
  c311
  c312
  c313
  c314
  c316
  c320
  c322
  c324
  c326
  c327
  c328
  c334
  c335
  c336
  c337
  c338
  c34
  c341
  c342
  c348
  c351
  c354
  c357
  c358
  c359
  c36
  c360
  c366
  c367
  c368
  c369
  c370
  c374
  c38
  c380
  c383
  c386
  c389
  c39
  c390
  c391
  c392
  c397
  c398
  c406
  c407
  c408
  c409
  c410
  c411
  c412
  c416
  c418
  c420
  c422
  c423
  c424
  c430
  c431
  c432
  c433
  c434
  c437
  c438
  c44
  c441
  c444
  c446
  c447
  c449
  c45
  c450
  c453
  c456
  c459
  c476
  c53
  c57
  c58
  c60
  c64
  c66
  c68
  c70
  c71
  c72
  c76
  c78
  c79
  c80
  c81
  c82
  c85
  c86
  c91
  c92
  c95
  c98 )
